; PUSH cw_2 DUP1 SLOAD DUP2 SWAP1 DUP2 => PUSH cw_2 DUP1 DUP1 SLOAD PUSH cw_2
(set-option :produce-proofs true)
; 
(set-info :status unknown)
(declare-fun storage_t ((_ BitVec 256) (_ BitVec 256) Int (_ BitVec 256)) (_ BitVec 256))
(declare-fun w_2 () (_ BitVec 256))
(declare-fun storage_s ((_ BitVec 256) (_ BitVec 256) Int (_ BitVec 256)) (_ BitVec 256))
(declare-fun exc_halt_t (Int) Bool)
(declare-fun exc_halt_s (Int) Bool)
(declare-fun stack_t ((_ BitVec 256) (_ BitVec 256) Int (_ BitVec 6)) (_ BitVec 256))
(declare-fun stack_s ((_ BitVec 256) (_ BitVec 256) Int (_ BitVec 6)) (_ BitVec 256))
(declare-fun sc_t (Int) (_ BitVec 6))
(declare-fun sc_s (Int) (_ BitVec 6))
(declare-fun used_gas_t ((_ BitVec 256) (_ BitVec 256) Int) Int)
(declare-fun used_gas_s ((_ BitVec 256) (_ BitVec 256) Int) Int)
(assert
 (exists ((x_SLOAD_0 (_ BitVec 256)) )(let (($x4104 (forall ((w (_ BitVec 256)) )(let ((?x4168 (storage_t x_SLOAD_0 w_2 5 w)))
 (let ((?x1201 (storage_s x_SLOAD_0 w_2 6 w)))
 (= ?x1201 ?x4168))))
 ))
 (let (($x886 (exc_halt_t 5)))
 (let (($x772 (exc_halt_s 6)))
 (let (($x889 (= $x772 $x886)))
 (let (($x7397 (forall ((n (_ BitVec 6)) )(let ((?x3156 (stack_t x_SLOAD_0 w_2 5 n)))
 (let ((?x6276 (stack_s x_SLOAD_0 w_2 6 n)))
 (let (($x4283 (= ?x6276 ?x3156)))
 (let ((?x919 (sc_t 5)))
 (let (($x2064 (bvsle ?x919 n)))
 (or $x2064 $x4283)))))))
 ))
 (let ((?x919 (sc_t 5)))
 (let ((?x926 (sc_s 6)))
 (let (($x929 (= ?x926 ?x919)))
 (let ((?x8851 (used_gas_t x_SLOAD_0 w_2 0)))
 (let ((?x9767 (used_gas_s x_SLOAD_0 w_2 0)))
 (let (($x5587 (= ?x9767 ?x8851)))
 (let (($x3505 (forall ((w (_ BitVec 256)) )(let ((?x9912 (storage_t x_SLOAD_0 w_2 0 w)))
 (let ((?x153 (storage_s x_SLOAD_0 w_2 0 w)))
 (= ?x153 ?x9912))))
 ))
 (let (($x56 (exc_halt_t 0)))
 (let (($x57 (exc_halt_s 0)))
 (let (($x58 (= $x57 $x56)))
 (let (($x9788 (forall ((n (_ BitVec 6)) )(let ((?x1908 (stack_t x_SLOAD_0 w_2 0 n)))
 (let ((?x7653 (stack_s x_SLOAD_0 w_2 0 n)))
 (let (($x7484 (= ?x7653 ?x1908)))
 (let ((?x63 (sc_t 0)))
 (let (($x6321 (bvsle ?x63 n)))
 (or $x6321 $x7484)))))))
 ))
 (let ((?x63 (sc_t 0)))
 (let ((?x72 (sc_s 0)))
 (let (($x73 (= ?x72 ?x63)))
 (let (($x3723 (exc_halt_t 4)))
 (let (($x10771 (or $x3723 (not (= ((_ extract 6 6) (bvadd (_ bv1 7) (concat (_ bv0 1) (sc_t 4)))) (_ bv0 1))))))
 (let (($x5116 (forall ((w (_ BitVec 256)) )(let ((?x11055 (storage_t x_SLOAD_0 w_2 4 w)))
 (let ((?x4168 (storage_t x_SLOAD_0 w_2 5 w)))
 (= ?x4168 ?x11055))))
 ))
 (let (($x9707 (forall ((n (_ BitVec 6)) )(let ((?x3757 (sc_t 4)))
 (let (($x916 (bvsle ?x3757 n)))
 (or $x916 (= (stack_t x_SLOAD_0 w_2 5 n) (stack_t x_SLOAD_0 w_2 4 n))))))
 ))
 (let (($x3851 (= (used_gas_t x_SLOAD_0 w_2 5) (+ 3 (used_gas_t x_SLOAD_0 w_2 4)))))
 (let (($x11093 (= $x3723 (or (exc_halt_t 3) (not (bvsle (_ bv0 6) (bvadd (_ bv63 6) (sc_t 3))))))))
 (let (($x865 (forall ((w (_ BitVec 256)) )(let ((?x8777 (storage_t x_SLOAD_0 w_2 3 w)))
 (let ((?x11055 (storage_t x_SLOAD_0 w_2 4 w)))
 (= ?x11055 ?x8777))))
 ))
 (let (($x9457 (forall ((n (_ BitVec 6)) )(let ((?x2725 (sc_t 3)))
 (let ((?x6571 (bvadd (_ bv63 6) ?x2725)))
 (let (($x11102 (bvsle ?x6571 n)))
 (or (= (stack_t x_SLOAD_0 w_2 4 n) (stack_t x_SLOAD_0 w_2 3 n)) $x11102)))))
 ))
 (let ((?x2725 (sc_t 3)))
 (let ((?x3757 (sc_t 4)))
 (let (($x11100 (= ?x3757 ?x2725)))
 (let ((?x9085 (used_gas_t x_SLOAD_0 w_2 4)))
 (let ((?x6571 (bvadd (_ bv63 6) ?x2725)))
 (let ((?x5957 (stack_t x_SLOAD_0 w_2 3 ?x6571)))
 (let (($x6043 (= (stack_t x_SLOAD_0 w_2 4 (bvadd (_ bv63 6) ?x3757)) (storage_t x_SLOAD_0 w_2 3 ?x5957))))
 (let (($x6698 (not (bvsle (_ bv0 6) (bvadd (_ bv63 6) (sc_t 2))))))
 (let (($x5252 (exc_halt_t 2)))
 (let (($x751 (not (= ((_ extract 6 6) (bvadd (_ bv1 7) (concat (_ bv0 1) (sc_t 2)))) (_ bv0 1)))))
 (let (($x2075 (exc_halt_t 3)))
 (let (($x10096 (forall ((w (_ BitVec 256)) )(let ((?x3353 (storage_t x_SLOAD_0 w_2 2 w)))
 (let ((?x8777 (storage_t x_SLOAD_0 w_2 3 w)))
 (= ?x8777 ?x3353))))
 ))
 (let (($x2224 (forall ((n (_ BitVec 6)) )(let ((?x2714 (sc_t 2)))
 (let ((?x11371 (bvadd (_ bv63 6) ?x2714)))
 (let (($x5361 (bvsle ?x11371 n)))
 (or $x5361 (= (stack_t x_SLOAD_0 w_2 3 n) (stack_t x_SLOAD_0 w_2 2 n)))))))
 ))
 (let (($x3846 (= ?x2725 (bvadd (_ bv1 6) (sc_t 2)))))
 (let ((?x7348 (used_gas_t x_SLOAD_0 w_2 3)))
 (let ((?x2714 (sc_t 2)))
 (let ((?x11371 (bvadd (_ bv63 6) ?x2714)))
 (let ((?x9568 (stack_t x_SLOAD_0 w_2 2 ?x11371)))
 (let (($x10979 (not (bvsle (_ bv0 6) (bvadd (_ bv63 6) (sc_t 1))))))
 (let (($x8124 (not (= ((_ extract 6 6) (bvadd (_ bv1 7) (concat (_ bv0 1) (sc_t 1)))) (_ bv0 1)))))
 (let (($x8096 (exc_halt_t 1)))
 (let (($x1985 (= $x5252 (or $x8096 $x8124 $x10979))))
 (let (($x6749 (forall ((w (_ BitVec 256)) )(let ((?x7934 (storage_t x_SLOAD_0 w_2 1 w)))
 (let ((?x3353 (storage_t x_SLOAD_0 w_2 2 w)))
 (= ?x3353 ?x7934))))
 ))
 (let (($x9455 (forall ((n (_ BitVec 6)) )(let ((?x10950 (sc_t 1)))
 (let ((?x2841 (bvadd (_ bv63 6) ?x10950)))
 (let (($x6081 (bvsle ?x2841 n)))
 (or $x6081 (= (stack_t x_SLOAD_0 w_2 2 n) (stack_t x_SLOAD_0 w_2 1 n)))))))
 ))
 (let (($x6826 (= ?x2714 (bvadd (_ bv1 6) (sc_t 1)))))
 (let ((?x5197 (used_gas_t x_SLOAD_0 w_2 2)))
 (let ((?x10950 (sc_t 1)))
 (let ((?x2841 (bvadd (_ bv63 6) ?x10950)))
 (let ((?x1759 (stack_t x_SLOAD_0 w_2 1 ?x2841)))
 (let (($x7342 (= $x8096 (or $x56 (not (= ((_ extract 6 6) (bvadd (_ bv1 7) (concat (_ bv0 1) ?x63))) (_ bv0 1)))))))
 (let (($x4136 (forall ((w (_ BitVec 256)) )(let ((?x9912 (storage_t x_SLOAD_0 w_2 0 w)))
 (let ((?x7934 (storage_t x_SLOAD_0 w_2 1 w)))
 (= ?x7934 ?x9912))))
 ))
 (let (($x3387 (forall ((n (_ BitVec 6)) )(let ((?x63 (sc_t 0)))
 (let (($x6321 (bvsle ?x63 n)))
 (or $x6321 (= (stack_t x_SLOAD_0 w_2 1 n) (stack_t x_SLOAD_0 w_2 0 n))))))
 ))
 (let (($x6864 (= ?x10950 (bvadd (_ bv1 6) ?x63))))
 (let (($x9579 (not (= ((_ extract 6 6) (bvadd (_ bv1 7) (concat (_ bv0 1) (sc_s 5)))) (_ bv0 1)))))
 (let (($x6228 (not (bvsle (_ bv0 6) (bvadd (_ bv62 6) (sc_s 5))))))
 (let (($x3979 (exc_halt_s 5)))
 (let (($x8008 (= $x772 (or $x3979 $x6228 $x9579))))
 (let (($x2651 (forall ((w (_ BitVec 256)) )(let ((?x1081 (storage_s x_SLOAD_0 w_2 5 w)))
 (let ((?x1201 (storage_s x_SLOAD_0 w_2 6 w)))
 (= ?x1201 ?x1081))))
 ))
 (let (($x7235 (forall ((n (_ BitVec 6)) )(let ((?x805 (sc_s 5)))
 (let ((?x1334 (bvadd (_ bv62 6) ?x805)))
 (let (($x6351 (bvsle ?x1334 n)))
 (or $x6351 (= (stack_s x_SLOAD_0 w_2 6 n) (stack_s x_SLOAD_0 w_2 5 n)))))))
 ))
 (let (($x9087 (= ?x926 (bvadd (_ bv1 6) (sc_s 5)))))
 (let (($x9038 (= (used_gas_s x_SLOAD_0 w_2 6) (+ 3 (used_gas_s x_SLOAD_0 w_2 5)))))
 (let ((?x805 (sc_s 5)))
 (let ((?x5665 (bvadd (_ bv63 6) ?x805)))
 (let ((?x10440 (stack_s x_SLOAD_0 w_2 5 ?x5665)))
 (let ((?x1334 (bvadd (_ bv62 6) ?x805)))
 (let ((?x130 (stack_s x_SLOAD_0 w_2 5 ?x1334)))
 (let (($x136 (= $x3979 (or (exc_halt_s 4) (not (bvsle (_ bv0 6) (bvadd (_ bv62 6) (sc_s 4))))))))
 (let (($x5532 (forall ((w (_ BitVec 256)) )(let ((?x6187 (storage_s x_SLOAD_0 w_2 4 w)))
 (let ((?x1081 (storage_s x_SLOAD_0 w_2 5 w)))
 (= ?x1081 ?x6187))))
 ))
 (let (($x5829 (forall ((n (_ BitVec 6)) )(let ((?x4305 (sc_s 4)))
 (let ((?x3279 (bvadd (_ bv62 6) ?x4305)))
 (let (($x3606 (bvsle ?x3279 n)))
 (or $x3606 (= (stack_s x_SLOAD_0 w_2 5 n) (stack_s x_SLOAD_0 w_2 4 n)))))))
 ))
 (let ((?x4305 (sc_s 4)))
 (let (($x7896 (= ?x805 ?x4305)))
 (let ((?x811 (used_gas_s x_SLOAD_0 w_2 5)))
 (let (($x11123 (not (bvsle (_ bv0 6) (bvadd (_ bv62 6) (sc_s 3))))))
 (let (($x292 (exc_halt_s 3)))
 (let (($x1762 (or $x292 (not (= ((_ extract 6 6) (bvadd (_ bv1 7) (concat (_ bv0 1) (sc_s 3)))) (_ bv0 1))) $x11123)))
 (let (($x7172 (exc_halt_s 4)))
 (let (($x2994 (forall ((w (_ BitVec 256)) )(let ((?x9007 (storage_s x_SLOAD_0 w_2 3 w)))
 (let ((?x6187 (storage_s x_SLOAD_0 w_2 4 w)))
 (= ?x6187 ?x9007))))
 ))
 (let (($x6500 (forall ((n (_ BitVec 6)) )(let ((?x275 (sc_s 3)))
 (let ((?x9431 (bvadd (_ bv62 6) ?x275)))
 (let (($x11113 (bvsle ?x9431 n)))
 (or (= (stack_s x_SLOAD_0 w_2 4 n) (stack_s x_SLOAD_0 w_2 3 n)) $x11113)))))
 ))
 (let ((?x4540 (used_gas_s x_SLOAD_0 w_2 4)))
 (let ((?x275 (sc_s 3)))
 (let ((?x10342 (bvadd (_ bv63 6) ?x275)))
 (let ((?x8862 (stack_s x_SLOAD_0 w_2 3 ?x10342)))
 (let ((?x9431 (bvadd (_ bv62 6) ?x275)))
 (let ((?x11330 (stack_s x_SLOAD_0 w_2 3 ?x9431)))
 (let (($x11088 (= $x292 (or (exc_halt_s 2) (not (bvsle (_ bv0 6) (bvadd (_ bv63 6) (sc_s 2))))))))
 (let (($x10865 (forall ((w (_ BitVec 256)) )(let ((?x2584 (storage_s x_SLOAD_0 w_2 2 w)))
 (let ((?x9007 (storage_s x_SLOAD_0 w_2 3 w)))
 (= ?x9007 ?x2584))))
 ))
 (let (($x7261 (forall ((n (_ BitVec 6)) )(let ((?x218 (sc_s 2)))
 (let ((?x8251 (bvadd (_ bv63 6) ?x218)))
 (let (($x11081 (bvsle ?x8251 n)))
 (or (= (stack_s x_SLOAD_0 w_2 3 n) (stack_s x_SLOAD_0 w_2 2 n)) $x11081)))))
 ))
 (let ((?x218 (sc_s 2)))
 (let (($x7306 (= ?x275 ?x218)))
 (let ((?x906 (used_gas_s x_SLOAD_0 w_2 3)))
 (let ((?x8251 (bvadd (_ bv63 6) ?x218)))
 (let ((?x2440 (stack_s x_SLOAD_0 w_2 2 ?x8251)))
 (let (($x10127 (not (bvsle (_ bv0 6) (bvadd (_ bv63 6) (sc_s 1))))))
 (let (($x4050 (not (= ((_ extract 6 6) (bvadd (_ bv1 7) (concat (_ bv0 1) (sc_s 1)))) (_ bv0 1)))))
 (let (($x189 (exc_halt_s 1)))
 (let (($x247 (exc_halt_s 2)))
 (let (($x1808 (forall ((w (_ BitVec 256)) )(let ((?x3595 (storage_s x_SLOAD_0 w_2 1 w)))
 (let ((?x2584 (storage_s x_SLOAD_0 w_2 2 w)))
 (= ?x2584 ?x3595))))
 ))
 (let (($x1859 (forall ((n (_ BitVec 6)) )(let ((?x154 (sc_s 1)))
 (let ((?x2527 (bvadd (_ bv63 6) ?x154)))
 (let (($x2194 (bvsle ?x2527 n)))
 (or $x2194 (= (stack_s x_SLOAD_0 w_2 2 n) (stack_s x_SLOAD_0 w_2 1 n)))))))
 ))
 (let (($x4375 (= ?x218 (bvadd (_ bv1 6) (sc_s 1)))))
 (let ((?x1485 (used_gas_s x_SLOAD_0 w_2 2)))
 (let ((?x154 (sc_s 1)))
 (let ((?x2527 (bvadd (_ bv63 6) ?x154)))
 (let ((?x6964 (stack_s x_SLOAD_0 w_2 1 ?x2527)))
 (let (($x788 (= $x189 (or $x57 (not (= ((_ extract 6 6) (bvadd (_ bv1 7) (concat (_ bv0 1) ?x72))) (_ bv0 1)))))))
 (let (($x11177 (forall ((w (_ BitVec 256)) )(let ((?x153 (storage_s x_SLOAD_0 w_2 0 w)))
 (let ((?x3595 (storage_s x_SLOAD_0 w_2 1 w)))
 (= ?x3595 ?x153))))
 ))
 (let (($x5735 (forall ((n (_ BitVec 6)) )(let ((?x72 (sc_s 0)))
 (let (($x720 (bvsle ?x72 n)))
 (or $x720 (= (stack_s x_SLOAD_0 w_2 1 n) (stack_s x_SLOAD_0 w_2 0 n))))))
 ))
 (let (($x481 (= ?x154 (bvadd (_ bv1 6) ?x72))))
 (let (($x2593 (forall ((w (_ BitVec 256)) )(let ((?x3306 (ite (= w (stack_s x_SLOAD_0 w_2 2 (bvadd (_ bv63 6) (sc_s 2)))) x_SLOAD_0 (_ bv0 256))))
 (let ((?x153 (storage_s x_SLOAD_0 w_2 0 w)))
 (= ?x153 ?x3306))))
 ))
 (let (($x9972 (= ?x9767 0)))
 (let (($x1438 (not $x57)))
 (let (($x1259 (= ?x72 (_ bv0 6))))
 (and $x1259 $x1438 $x9972 $x2593 (= (stack_s x_SLOAD_0 w_2 1 ?x72) w_2) (= (used_gas_s x_SLOAD_0 w_2 1) (+ 3 ?x9767)) $x481 $x5735 $x11177 $x788 (= ?x2440 ?x6964) (= (stack_s x_SLOAD_0 w_2 2 ?x2527) ?x6964) (= ?x1485 (+ 3 (used_gas_s x_SLOAD_0 w_2 1))) $x4375 $x1859 $x1808 (= $x247 (or $x189 $x4050 $x10127)) (= ?x8862 (storage_s x_SLOAD_0 w_2 2 ?x2440)) (= ?x906 (+ 200 ?x1485)) $x7306 $x7261 $x10865 $x11088 (= (stack_s x_SLOAD_0 w_2 4 (bvadd (_ bv63 6) ?x4305)) ?x11330) (= (stack_s x_SLOAD_0 w_2 4 ?x9431) ?x11330) (= (stack_s x_SLOAD_0 w_2 4 ?x10342) ?x8862) (= ?x4540 (+ 3 ?x906)) (= ?x4305 (bvadd (_ bv1 6) ?x275)) $x6500 $x2994 (= $x7172 $x1762) (= ?x10440 (stack_s x_SLOAD_0 w_2 4 (bvadd (_ bv62 6) ?x4305))) (= ?x130 (stack_s x_SLOAD_0 w_2 4 (bvadd (_ bv63 6) ?x4305))) (= ?x811 (+ 3 ?x4540)) $x7896 $x5829 $x5532 $x136 (= (stack_s x_SLOAD_0 w_2 6 (bvadd (_ bv63 6) ?x926)) ?x130) (= (stack_s x_SLOAD_0 w_2 6 ?x1334) ?x130) (= (stack_s x_SLOAD_0 w_2 6 ?x5665) ?x10440) $x9038 $x9087 $x7235 $x2651 $x8008 (= (stack_t x_SLOAD_0 w_2 1 ?x63) w_2) (= (used_gas_t x_SLOAD_0 w_2 1) (+ 3 ?x8851)) $x6864 $x3387 $x4136 $x7342 (= ?x9568 ?x1759) (= (stack_t x_SLOAD_0 w_2 2 ?x2841) ?x1759) (= ?x5197 (+ 3 (used_gas_t x_SLOAD_0 w_2 1))) $x6826 $x9455 $x6749 $x1985 (= ?x5957 ?x9568) (= (stack_t x_SLOAD_0 w_2 3 ?x11371) ?x9568) (= ?x7348 (+ 3 ?x5197)) $x3846 $x2224 $x10096 (= $x2075 (or $x751 $x5252 $x6698)) $x6043 (= ?x9085 (+ 200 ?x7348)) $x11100 $x9457 $x865 $x11093 (= (stack_t x_SLOAD_0 w_2 5 ?x3757) w_2) $x3851 (= ?x919 (bvadd (_ bv1 6) ?x3757)) $x9707 $x5116 (= $x886 $x10771) $x73 $x9788 $x58 $x3505 $x5587 (not (and $x929 $x7397 $x889 $x4104))))))))))))))))))))))))))))))))))))))))))))))))))))))))))))))))))))))))))))))))))))))))))))))))))))))))))))))))))))))))))
 )
(check-sat)
(get-proof)
